16 32
1 2 4
1 5 5
2 3 4
2 6 2
3 4 2
3 7 3
4 8 5
5 6 4
5 9 3
6 7 1
6 10 3
7 8 5
7 11 1
8 12 1
9 10 5
9 13 1
10 11 3
10 14 5
11 12 4
11 15 1
12 16 5
13 14 5
14 15 3
15 16 4
1 13 4
2 14 5
3 15 4
4 16 1
1 4 4
5 8 1
9 12 4
13 16 3
